10
-1 74 88 -1 99 4 54 69 19 -1 
4 -1 94 50 76 11 78 25 61 -1 
14 75 -1 7 95 43 -1 -1 57 83 
9 80 39 -1 91 85 -1 40 96 43 
82 66 56 97 -1 9 11 45 46 67 
57 88 63 90 44 -1 86 12 65 79 
28 99 22 54 18 85 -1 54 48 37 
9 93 83 79 78 8 -1 -1 72 -1 
63 1 1 91 81 -1 28 38 -1 37 
-1 82 32 68 72 32 21 63 25 -1 
